<?xml version = "1.0" standalone="yes"?>
<!-- This file has been generated by DOcplex version 2.23.222  -->
<CPLEXSolution version="1.0">
 <header
   problemName="CVRP"
   objectiveValue="11363.3"
  />
 <variables>
  <variable name="x_0_1" index="0" value="1.00000"/>
  <variable name="x_0_2" index="1" value="1.00000"/>
  <variable name="x_0_3" index="2" value="1.00000"/>
  <variable name="x_0_4" index="3" value="1.00000"/>
  <variable name="x_0_5" index="4" value="1.00000"/>
  <variable name="x_0_7" index="6" value="1.00000"/>
  <variable name="x_0_11" index="10" value="1.00000"/>
  <variable name="x_0_12" index="11" value="1.00000"/>
  <variable name="x_0_13" index="12" value="1.00000"/>
  <variable name="x_1_0" index="13" value="1.00000"/>
  <variable name="x_2_0" index="26" value="1.00000"/>
  <variable name="x_3_9" index="47" value="1.00000"/>
  <variable name="x_4_0" index="52" value="1.00000"/>
  <variable name="x_5_0" index="65" value="1.00000"/>
  <variable name="x_6_0" index="78" value="1.00000"/>
  <variable name="x_7_0" index="91" value="1.00000"/>
  <variable name="x_8_0" index="104" value="1.00000"/>
  <variable name="x_9_0" index="117" value="1.00000"/>
  <variable name="x_10_6" index="136" value="1.00000"/>
  <variable name="x_11_8" index="151" value="1.00000"/>
  <variable name="x_12_10" index="166" value="1.00000"/>
  <variable name="x_13_0" index="169" value="1.00000"/>
  <variable name="u_1" index="182" value="36.00000"/>
  <variable name="u_2" index="183" value="36.00000"/>
  <variable name="u_3" index="184" value="33.00000"/>
  <variable name="u_4" index="185" value="50.00000"/>
  <variable name="u_5" index="186" value="55.00000"/>
  <variable name="u_6" index="187" value="45.00000"/>
  <variable name="u_7" index="188" value="55.00000"/>
  <variable name="u_8" index="189" value="46.00000"/>
  <variable name="u_9" index="190" value="55.00000"/>
  <variable name="u_10" index="191" value="36.00000"/>
  <variable name="u_11" index="192" value="30.00000"/>
  <variable name="u_12" index="193" value="19.00000"/>
  <variable name="u_13" index="194" value="54.00000"/>
 </variables>
</CPLEXSolution>
